
Gurobi 12.0.1 (mac64[arm], gurobi_cl) logging started Wed May  7 19:46:36 2025

Set parameter LogFile to value "gurobi.log"
Using license file /Users/trentlee/.gurobi/gurobi.lic

Gurobi 12.0.1 (mac64[arm], gurobi_cl) logging started Wed May  7 19:49:34 2025

Set parameter LogFile to value "gurobi.log"
Using license file /Users/trentlee/.gurobi/gurobi.lic

Gurobi 12.0.1 (mac64[arm], gurobi_cl) logging started Wed May  7 19:58:46 2025

Set parameter LogFile to value "gurobi.log"
Using license file /Users/trentlee/.gurobi/gurobi.lic
